Optimize a model with 1601 rows, 1680 columns and 10608 nonzeros
Model has 1 quadratic constraint
Coefficient statistics:
  Matrix range    [1e+00, 4e+01]
  Objective range [1e+02, 7e+02]
  Bounds range    [1e+00, 4e+01]
  RHS range       [1e+00, 4e+01]
Presolve removed 0 rows and 42 columns
Presolve time: 0.04s
Presolved: 3123 rows, 3159 columns, 16692 nonzeros
Variable types: 0 continuous, 3159 integer (3120 binary)

Root relaxation: objective 3.780000e+02, 72 iterations, 0.01 seconds

    Nodes    |    Current Node    |     Objective Bounds      |     Work
 Expl Unexpl |  Obj  Depth IntInf | Incumbent    BestBd   Gap | It/Node Time

     0     0  378.00000    0   33          -  378.00000      -     -    0s
     0     0  378.00000    0   33          -  378.00000      -     -    0s
     0     0  378.00000    0   34          -  378.00000      -     -    0s
     0     0  378.00000    0   35          -  378.00000      -     -    0s
     0     0  378.00000    0   33          -  378.00000      -     -    0s
     0     0  378.00000    0   34          -  378.00000      -     -    0s
     0     0  378.00000    0   36          -  378.00000      -     -    0s
     0     0  378.00000    0   33          -  378.00000      -     -    0s
H    0     0                    2342.0000000  378.00000  83.9%     -    0s
     0     2  378.00000    0   32 2342.00000  378.00000  83.9%     -    0s
H 1053  1053                    2334.0000000  378.00000  83.8%   1.3    4s
  1080  1082  378.00000 1080   33 2334.00000  378.00000  83.8%   1.3    5s
H 1863  1399                    2305.0000000 2238.33837  2.89%   6.4    8s
* 2328  1263              38    2300.0000000 2244.44158  2.42%   9.9    9s
  2393  1251 2287.48101   36    5 2300.00000 2245.21039  2.38%  10.4   10s
  4387   416 2279.37579   34   20 2300.00000 2278.64450  0.93%  16.5   15s
* 4549   202              40    2293.0000000 2287.03262  0.26%  16.5   15s

Cutting planes:
  Implied bound: 1

Explored 4576 nodes (77072 simplex iterations) in 15.39 seconds
Thread count was 1 (of 4 available processors)

Optimal solution found (tolerance 1.00e-04)
Best objective 2.293000000000e+03, best bound 2.293000000000e+03, gap 0.0%
2293
(0,3) (26,0) (7,1) (1,26) (12,2) (2,39) (3,35) (9,4) (4,19) (29,4) (5,35) (38,7) (39,9) (35,12) (18,15) (15,38) (33,18) (19,29) (29,23) (23,32) (25,32) (33,26) (32,33) 
